p cnf 289 1
289 0
w 1 0.501999
w 2 1 1
w 2 -1 0
w 3 2 0.570658
w 3 -2 0.680398
w 4 3 0
w 4 -3 1
w 5 4 0.601523
w 5 -4 0.831621
w 6 5 1
w 6 -5 0
w 7 6 0.701598
w 7 -6 0.849398
w 8 7 1
w 8 -7 0
w 9 8 1
w 9 -8 0
w 10 9 0
w 10 -9 1
w 11 10 0
w 11 -10 1
w 12 11 1
w 12 -11 0
w 13 12 1
w 13 -12 0
w 14 13 1
w 14 -13 0
w 15 14 1
w 15 -14 0
w 16 15 1
w 16 -15 0
w 17 16 0
w 17 -16 1
w 18 1 0.836815
w 18 -1 0.336056
w 19 18 2 0.438338
w 19 18 -2 0.167676
w 19 -18 2 0.287102
w 19 -18 -2 0.953515
w 20 19 3 0
w 20 19 -3 1
w 20 -19 3 1
w 20 -19 -3 1
w 21 20 4 0
w 21 20 -4 1
w 21 -20 4 0
w 21 -20 -4 1
w 22 21 5 1
w 22 21 -5 0
w 22 -21 5 0
w 22 -21 -5 0
w 23 22 6 0.634699
w 23 22 -6 0.0663863
w 23 -22 6 0.701211
w 23 -22 -6 0.310164
w 24 23 7 0
w 24 23 -7 1
w 24 -23 7 1
w 24 -23 -7 1
w 25 24 8 0.956917
w 25 24 -8 0.641215
w 25 -24 8 0.0600174
w 25 -24 -8 0.244019
w 26 25 9 1
w 26 25 -9 0
w 26 -25 9 1
w 26 -25 -9 0
w 27 26 10 0
w 27 26 -10 1
w 27 -26 10 0
w 27 -26 -10 0
w 28 27 11 0
w 28 27 -11 1
w 28 -27 11 1
w 28 -27 -11 0
w 29 28 12 0.906631
w 29 28 -12 0.832883
w 29 -28 12 0.0656716
w 29 -28 -12 0.607842
w 30 29 13 1
w 30 29 -13 0
w 30 -29 13 1
w 30 -29 -13 0
w 31 30 14 1
w 31 30 -14 1
w 31 -30 14 0
w 31 -30 -14 0
w 32 31 15 0.412726
w 32 31 -15 0.726428
w 32 -31 15 0.992426
w 32 -31 -15 0.810368
w 33 32 16 0.689929
w 33 32 -16 0.365994
w 33 -32 16 0.480996
w 33 -32 -16 0.00692165
w 34 33 17 1
w 34 33 -17 0
w 34 -33 17 0
w 34 -33 -17 0
w 35 18 0
w 35 -18 1
w 36 35 19 1
w 36 35 -19 1
w 36 -35 19 0
w 36 -35 -19 1
w 37 36 20 1
w 37 36 -20 0
w 37 -36 20 0
w 37 -36 -20 1
w 38 37 21 1
w 38 37 -21 1
w 38 -37 21 0
w 38 -37 -21 1
w 39 38 22 0.147722
w 39 38 -22 0.313547
w 39 -38 22 0.865966
w 39 -38 -22 0.837651
w 40 39 23 0
w 40 39 -23 0
w 40 -39 23 0
w 40 -39 -23 1
w 41 40 24 0.832661
w 41 40 -24 0.626468
w 41 -40 24 0.166648
w 41 -40 -24 0.729416
w 42 41 25 0
w 42 41 -25 0
w 42 -41 25 0
w 42 -41 -25 1
w 43 42 26 1
w 43 42 -26 1
w 43 -42 26 1
w 43 -42 -26 0
w 44 43 27 0.288459
w 44 43 -27 0.72075
w 44 -43 27 0.136923
w 44 -43 -27 0.443754
w 45 44 28 1
w 45 44 -28 1
w 45 -44 28 1
w 45 -44 -28 0
w 46 45 29 1
w 46 45 -29 0
w 46 -45 29 1
w 46 -45 -29 1
w 47 46 30 0
w 47 46 -30 0
w 47 -46 30 1
w 47 -46 -30 1
w 48 47 31 1
w 48 47 -31 1
w 48 -47 31 0
w 48 -47 -31 0
w 49 48 32 1
w 49 48 -32 0
w 49 -48 32 0
w 49 -48 -32 1
w 50 49 33 1
w 50 49 -33 0
w 50 -49 33 1
w 50 -49 -33 1
w 51 50 34 0
w 51 50 -34 0
w 51 -50 34 1
w 51 -50 -34 1
w 52 35 0
w 52 -35 1
w 53 52 36 0.338489
w 53 52 -36 0.142755
w 53 -52 36 0.107853
w 53 -52 -36 0.518708
w 54 53 37 0
w 54 53 -37 1
w 54 -53 37 0
w 54 -53 -37 0
w 55 54 38 1
w 55 54 -38 0
w 55 -54 38 1
w 55 -54 -38 0
w 56 55 39 1
w 56 55 -39 0
w 56 -55 39 0
w 56 -55 -39 0
w 57 56 40 1
w 57 56 -40 0
w 57 -56 40 0
w 57 -56 -40 1
w 58 57 41 0.259399
w 58 57 -41 0.326967
w 58 -57 41 0.476826
w 58 -57 -41 0.324188
w 59 58 42 1
w 59 58 -42 1
w 59 -58 42 0
w 59 -58 -42 1
w 60 59 43 1
w 60 59 -43 1
w 60 -59 43 0
w 60 -59 -43 1
w 61 60 44 1
w 61 60 -44 0
w 61 -60 44 0
w 61 -60 -44 1
w 62 61 45 0
w 62 61 -45 0
w 62 -61 45 0
w 62 -61 -45 1
w 63 62 46 0.465816
w 63 62 -46 0.0279722
w 63 -62 46 0.527409
w 63 -62 -46 0.019256
w 64 63 47 0.786807
w 64 63 -47 0.346224
w 64 -63 47 0.403006
w 64 -63 -47 0.110995
w 65 64 48 0
w 65 64 -48 0
w 65 -64 48 1
w 65 -64 -48 1
w 66 65 49 0.711901
w 66 65 -49 0.558667
w 66 -65 49 0.00201735
w 66 -65 -49 0.14171
w 67 66 50 1
w 67 66 -50 1
w 67 -66 50 1
w 67 -66 -50 0
w 68 67 51 1
w 68 67 -51 0
w 68 -67 51 0
w 68 -67 -51 0
w 69 52 0
w 69 -52 1
w 70 69 53 0
w 70 69 -53 1
w 70 -69 53 0
w 70 -69 -53 0
w 71 70 54 0
w 71 70 -54 1
w 71 -70 54 0
w 71 -70 -54 1
w 72 71 55 0
w 72 71 -55 0
w 72 -71 55 1
w 72 -71 -55 1
w 73 72 56 0
w 73 72 -56 0
w 73 -72 56 1
w 73 -72 -56 1
w 74 73 57 0
w 74 73 -57 1
w 74 -73 57 1
w 74 -73 -57 1
w 75 74 58 1
w 75 74 -58 0
w 75 -74 58 1
w 75 -74 -58 1
w 76 75 59 0
w 76 75 -59 1
w 76 -75 59 0
w 76 -75 -59 0
w 77 76 60 0.190059
w 77 76 -60 0.302303
w 77 -76 60 0.637715
w 77 -76 -60 0.541053
w 78 77 61 0.228961
w 78 77 -61 0.0160515
w 78 -77 61 0.807181
w 78 -77 -61 0.775264
w 79 78 62 1
w 79 78 -62 0
w 79 -78 62 1
w 79 -78 -62 1
w 80 79 63 0
w 80 79 -63 0
w 80 -79 63 1
w 80 -79 -63 0
w 81 80 64 0
w 81 80 -64 1
w 81 -80 64 0
w 81 -80 -64 0
w 82 81 65 0.450874
w 82 81 -65 0.10127
w 82 -81 65 0.361404
w 82 -81 -65 0.780127
w 83 82 66 0.551463
w 83 82 -66 0.0824294
w 83 -82 66 0.559127
w 83 -82 -66 0.0925161
w 84 83 67 1
w 84 83 -67 0
w 84 -83 67 0
w 84 -83 -67 0
w 85 84 68 1
w 85 84 -68 1
w 85 -84 68 0
w 85 -84 -68 0
w 86 69 0
w 86 -69 1
w 87 86 70 1
w 87 86 -70 1
w 87 -86 70 0
w 87 -86 -70 1
w 88 87 71 1
w 88 87 -71 0
w 88 -87 71 1
w 88 -87 -71 1
w 89 88 72 0
w 89 88 -72 1
w 89 -88 72 0
w 89 -88 -72 1
w 90 89 73 0.878723
w 90 89 -73 0.949428
w 90 -89 73 0.00945564
w 90 -89 -73 0.666811
w 91 90 74 0
w 91 90 -74 0
w 91 -90 74 1
w 91 -90 -74 1
w 92 91 75 1
w 92 91 -75 0
w 92 -91 75 0
w 92 -91 -75 0
w 93 92 76 0.250704
w 93 92 -76 0.529873
w 93 -92 76 0.686898
w 93 -92 -76 0.55991
w 94 93 77 0
w 94 93 -77 0
w 94 -93 77 0
w 94 -93 -77 1
w 95 94 78 1
w 95 94 -78 1
w 95 -94 78 1
w 95 -94 -78 0
w 96 95 79 1
w 96 95 -79 0
w 96 -95 79 0
w 96 -95 -79 0
w 97 96 80 0
w 97 96 -80 1
w 97 -96 80 1
w 97 -96 -80 1
w 98 97 81 1
w 98 97 -81 1
w 98 -97 81 0
w 98 -97 -81 0
w 99 98 82 0
w 99 98 -82 1
w 99 -98 82 1
w 99 -98 -82 0
w 100 99 83 0.616775
w 100 99 -83 0.714097
w 100 -99 83 0.484452
w 100 -99 -83 0.00406808
w 101 100 84 0.34926
w 101 100 -84 0.247123
w 101 -100 84 0.543705
w 101 -100 -84 0.0709801
w 102 101 85 0
w 102 101 -85 0
w 102 -101 85 1
w 102 -101 -85 0
w 103 86 1
w 103 -86 0
w 104 103 87 0
w 104 103 -87 1
w 104 -103 87 1
w 104 -103 -87 1
w 105 104 88 1
w 105 104 -88 1
w 105 -104 88 0
w 105 -104 -88 1
w 106 105 89 0
w 106 105 -89 0
w 106 -105 89 1
w 106 -105 -89 1
w 107 106 90 1
w 107 106 -90 0
w 107 -106 90 0
w 107 -106 -90 0
w 108 107 91 1
w 108 107 -91 0
w 108 -107 91 1
w 108 -107 -91 1
w 109 108 92 1
w 109 108 -92 0
w 109 -108 92 0
w 109 -108 -92 0
w 110 109 93 0.0682537
w 110 109 -93 0.0625088
w 110 -109 93 0.825903
w 110 -109 -93 0.949435
w 111 110 94 1
w 111 110 -94 1
w 111 -110 94 0
w 111 -110 -94 0
w 112 111 95 0
w 112 111 -95 1
w 112 -111 95 0
w 112 -111 -95 1
w 113 112 96 0
w 113 112 -96 1
w 113 -112 96 0
w 113 -112 -96 0
w 114 113 97 0
w 114 113 -97 1
w 114 -113 97 0
w 114 -113 -97 1
w 115 114 98 0
w 115 114 -98 1
w 115 -114 98 0
w 115 -114 -98 0
w 116 115 99 0
w 116 115 -99 1
w 116 -115 99 0
w 116 -115 -99 0
w 117 116 100 0
w 117 116 -100 1
w 117 -116 100 0
w 117 -116 -100 0
w 118 117 101 1
w 118 117 -101 0
w 118 -117 101 1
w 118 -117 -101 0
w 119 118 102 1
w 119 118 -102 0
w 119 -118 102 0
w 119 -118 -102 0
w 120 103 1
w 120 -103 0
w 121 120 104 1
w 121 120 -104 0
w 121 -120 104 1
w 121 -120 -104 1
w 122 121 105 1
w 122 121 -105 1
w 122 -121 105 0
w 122 -121 -105 1
w 123 122 106 0
w 123 122 -106 0
w 123 -122 106 1
w 123 -122 -106 0
w 124 123 107 0
w 124 123 -107 0
w 124 -123 107 1
w 124 -123 -107 1
w 125 124 108 0
w 125 124 -108 1
w 125 -124 108 1
w 125 -124 -108 0
w 126 125 109 0
w 126 125 -109 0
w 126 -125 109 0
w 126 -125 -109 1
w 127 126 110 0.746876
w 127 126 -110 0.844143
w 127 -126 110 0.478138
w 127 -126 -110 0.37528
w 128 127 111 1
w 128 127 -111 1
w 128 -127 111 0
w 128 -127 -111 1
w 129 128 112 0.399137
w 129 128 -112 0.479759
w 129 -128 112 0.479082
w 129 -128 -112 0.242579
w 130 129 113 0
w 130 129 -113 0
w 130 -129 113 1
w 130 -129 -113 0
w 131 130 114 1
w 131 130 -114 0
w 131 -130 114 1
w 131 -130 -114 1
w 132 131 115 0.693555
w 132 131 -115 0.745997
w 132 -131 115 0.171577
w 132 -131 -115 0.175044
w 133 132 116 0
w 133 132 -116 0
w 133 -132 116 0
w 133 -132 -116 1
w 134 133 117 1
w 134 133 -117 1
w 134 -133 117 0
w 134 -133 -117 1
w 135 134 118 1
w 135 134 -118 0
w 135 -134 118 0
w 135 -134 -118 0
w 136 135 119 1
w 136 135 -119 1
w 136 -135 119 1
w 136 -135 -119 0
w 137 120 0.478782
w 137 -120 0.275615
w 138 137 121 1
w 138 137 -121 0
w 138 -137 121 0
w 138 -137 -121 0
w 139 138 122 0
w 139 138 -122 1
w 139 -138 122 1
w 139 -138 -122 1
w 140 139 123 1
w 140 139 -123 0
w 140 -139 123 0
w 140 -139 -123 0
w 141 140 124 1
w 141 140 -124 0
w 141 -140 124 0
w 141 -140 -124 0
w 142 141 125 0
w 142 141 -125 1
w 142 -141 125 1
w 142 -141 -125 1
w 143 142 126 1
w 143 142 -126 1
w 143 -142 126 1
w 143 -142 -126 0
w 144 143 127 0
w 144 143 -127 1
w 144 -143 127 1
w 144 -143 -127 0
w 145 144 128 0.853903
w 145 144 -128 0.749666
w 145 -144 128 0.749341
w 145 -144 -128 0.660576
w 146 145 129 1
w 146 145 -129 0
w 146 -145 129 0
w 146 -145 -129 0
w 147 146 130 1
w 147 146 -130 0
w 147 -146 130 0
w 147 -146 -130 0
w 148 147 131 0.0755523
w 148 147 -131 0.041573
w 148 -147 131 0.982111
w 148 -147 -131 0.140743
w 149 148 132 1
w 149 148 -132 1
w 149 -148 132 0
w 149 -148 -132 0
w 150 149 133 0.680364
w 150 149 -133 0.867825
w 150 -149 133 0.509582
w 150 -149 -133 0.76382
w 151 150 134 0.363485
w 151 150 -134 0.513486
w 151 -150 134 0.598275
w 151 -150 -134 0.0240603
w 152 151 135 0.0377678
w 152 151 -135 0.860274
w 152 -151 135 0.744663
w 152 -151 -135 0.464612
w 153 152 136 0.0697709
w 153 152 -136 0.966285
w 153 -152 136 0.241546
w 153 -152 -136 0.342966
w 154 137 1
w 154 -137 0
w 155 154 138 0
w 155 154 -138 0
w 155 -154 138 1
w 155 -154 -138 1
w 156 155 139 0
w 156 155 -139 1
w 156 -155 139 1
w 156 -155 -139 1
w 157 156 140 1
w 157 156 -140 1
w 157 -156 140 1
w 157 -156 -140 0
w 158 157 141 1
w 158 157 -141 1
w 158 -157 141 1
w 158 -157 -141 0
w 159 158 142 1
w 159 158 -142 1
w 159 -158 142 1
w 159 -158 -142 0
w 160 159 143 1
w 160 159 -143 0
w 160 -159 143 0
w 160 -159 -143 1
w 161 160 144 0
w 161 160 -144 1
w 161 -160 144 0
w 161 -160 -144 0
w 162 161 145 1
w 162 161 -145 1
w 162 -161 145 0
w 162 -161 -145 0
w 163 162 146 1
w 163 162 -146 1
w 163 -162 146 0
w 163 -162 -146 1
w 164 163 147 0.559094
w 164 163 -147 0.599428
w 164 -163 147 0.254802
w 164 -163 -147 0.345885
w 165 164 148 1
w 165 164 -148 0
w 165 -164 148 0
w 165 -164 -148 0
w 166 165 149 1
w 166 165 -149 0
w 166 -165 149 0
w 166 -165 -149 1
w 167 166 150 0
w 167 166 -150 1
w 167 -166 150 0
w 167 -166 -150 0
w 168 167 151 0
w 168 167 -151 1
w 168 -167 151 1
w 168 -167 -151 0
w 169 168 152 0.973159
w 169 168 -152 0.923834
w 169 -168 152 0.559046
w 169 -168 -152 0.738593
w 170 169 153 1
w 170 169 -153 0
w 170 -169 153 1
w 170 -169 -153 0
w 171 154 0
w 171 -154 1
w 172 171 155 1
w 172 171 -155 1
w 172 -171 155 0
w 172 -171 -155 1
w 173 172 156 0.562036
w 173 172 -156 0.422232
w 173 -172 156 0.764727
w 173 -172 -156 0.85479
w 174 173 157 0
w 174 173 -157 1
w 174 -173 157 0
w 174 -173 -157 0
w 175 174 158 0.00512562
w 175 174 -158 0.157696
w 175 -174 158 0.413542
w 175 -174 -158 0.875796
w 176 175 159 1
w 176 175 -159 1
w 176 -175 159 0
w 176 -175 -159 0
w 177 176 160 0.167135
w 177 176 -160 0.279563
w 177 -176 160 0.726853
w 177 -176 -160 0.810708
w 178 177 161 0
w 178 177 -161 1
w 178 -177 161 0
w 178 -177 -161 0
w 179 178 162 0
w 179 178 -162 0
w 179 -178 162 1
w 179 -178 -162 1
w 180 179 163 1
w 180 179 -163 0
w 180 -179 163 0
w 180 -179 -163 1
w 181 180 164 0.653482
w 181 180 -164 0.881283
w 181 -180 164 0.152818
w 181 -180 -164 0.0670233
w 182 181 165 0.283673
w 182 181 -165 0.404399
w 182 -181 165 0.191921
w 182 -181 -165 0.153121
w 183 182 166 0
w 183 182 -166 0
w 183 -182 166 0
w 183 -182 -166 1
w 184 183 167 0
w 184 183 -167 1
w 184 -183 167 1
w 184 -183 -167 0
w 185 184 168 1
w 185 184 -168 1
w 185 -184 168 0
w 185 -184 -168 0
w 186 185 169 0.591664
w 186 185 -169 0.508035
w 186 -185 169 0.284476
w 186 -185 -169 0.261501
w 187 186 170 0
w 187 186 -170 0
w 187 -186 170 1
w 187 -186 -170 1
w 188 171 0.0225527
w 188 -171 0.716088
w 189 188 172 1
w 189 188 -172 1
w 189 -188 172 1
w 189 -188 -172 0
w 190 189 173 0
w 190 189 -173 1
w 190 -189 173 0
w 190 -189 -173 0
w 191 190 174 0.599285
w 191 190 -174 0.407658
w 191 -190 174 0.576692
w 191 -190 -174 0.383918
w 192 191 175 0.123701
w 192 191 -175 0.343071
w 192 -191 175 0.564159
w 192 -191 -175 0.631736
w 193 192 176 0
w 193 192 -176 1
w 193 -192 176 1
w 193 -192 -176 1
w 194 193 177 0
w 194 193 -177 1
w 194 -193 177 0
w 194 -193 -177 0
w 195 194 178 1
w 195 194 -178 1
w 195 -194 178 0
w 195 -194 -178 0
w 196 195 179 0
w 196 195 -179 1
w 196 -195 179 1
w 196 -195 -179 0
w 197 196 180 0
w 197 196 -180 0
w 197 -196 180 0
w 197 -196 -180 1
w 198 197 181 0
w 198 197 -181 1
w 198 -197 181 1
w 198 -197 -181 1
w 199 198 182 0
w 199 198 -182 0
w 199 -198 182 1
w 199 -198 -182 0
w 200 199 183 0.825862
w 200 199 -183 0.358451
w 200 -199 183 0.151172
w 200 -199 -183 0.88151
w 201 200 184 0
w 201 200 -184 1
w 201 -200 184 1
w 201 -200 -184 0
w 202 201 185 0.777015
w 202 201 -185 0.658194
w 202 -201 185 0.355435
w 202 -201 -185 0.402351
w 203 202 186 0.573194
w 203 202 -186 0.626972
w 203 -202 186 0.316221
w 203 -202 -186 0.367646
w 204 203 187 1
w 204 203 -187 1
w 204 -203 187 1
w 204 -203 -187 0
w 205 188 0.766277
w 205 -188 0.786213
w 206 205 189 0
w 206 205 -189 1
w 206 -205 189 0
w 206 -205 -189 0
w 207 206 190 0.399894
w 207 206 -190 0.959951
w 207 -206 190 0.247971
w 207 -206 -190 0.0694933
w 208 207 191 0.624094
w 208 207 -191 0.61736
w 208 -207 191 0.687004
w 208 -207 -191 0.401109
w 209 208 192 1
w 209 208 -192 0
w 209 -208 192 1
w 209 -208 -192 0
w 210 209 193 1
w 210 209 -193 1
w 210 -209 193 0
w 210 -209 -193 0
w 211 210 194 0
w 211 210 -194 1
w 211 -210 194 1
w 211 -210 -194 1
w 212 211 195 0.506269
w 212 211 -195 0.871919
w 212 -211 195 0.295994
w 212 -211 -195 0.754991
w 213 212 196 0.0764587
w 213 212 -196 0.154885
w 213 -212 196 0.910311
w 213 -212 -196 0.32443
w 214 213 197 1
w 214 213 -197 1
w 214 -213 197 0
w 214 -213 -197 1
w 215 214 198 0
w 215 214 -198 0
w 215 -214 198 1
w 215 -214 -198 1
w 216 215 199 1
w 216 215 -199 1
w 216 -215 199 1
w 216 -215 -199 0
w 217 216 200 0
w 217 216 -200 1
w 217 -216 200 0
w 217 -216 -200 0
w 218 217 201 0
w 218 217 -201 1
w 218 -217 201 1
w 218 -217 -201 1
w 219 218 202 1
w 219 218 -202 1
w 219 -218 202 1
w 219 -218 -202 0
w 220 219 203 1
w 220 219 -203 0
w 220 -219 203 0
w 220 -219 -203 0
w 221 220 204 1
w 221 220 -204 0
w 221 -220 204 0
w 221 -220 -204 0
w 222 205 1
w 222 -205 0
w 223 222 206 0.690959
w 223 222 -206 0.454071
w 223 -222 206 0.201525
w 223 -222 -206 0.793487
w 224 223 207 0
w 224 223 -207 1
w 224 -223 207 1
w 224 -223 -207 0
w 225 224 208 1
w 225 224 -208 1
w 225 -224 208 0
w 225 -224 -208 0
w 226 225 209 0.107739
w 226 225 -209 0.494623
w 226 -225 209 0.919834
w 226 -225 -209 0.238823
w 227 226 210 0.780917
w 227 226 -210 0.733538
w 227 -226 210 0.554749
w 227 -226 -210 0.759292
w 228 227 211 0
w 228 227 -211 0
w 228 -227 211 0
w 228 -227 -211 1
w 229 228 212 0
w 229 228 -212 1
w 229 -228 212 0
w 229 -228 -212 0
w 230 229 213 1
w 230 229 -213 0
w 230 -229 213 1
w 230 -229 -213 0
w 231 230 214 0
w 231 230 -214 1
w 231 -230 214 0
w 231 -230 -214 0
w 232 231 215 1
w 232 231 -215 1
w 232 -231 215 1
w 232 -231 -215 0
w 233 232 216 0.801641
w 233 232 -216 0.438351
w 233 -232 216 0.696534
w 233 -232 -216 0.35639
w 234 233 217 1
w 234 233 -217 0
w 234 -233 217 1
w 234 -233 -217 1
w 235 234 218 1
w 235 234 -218 1
w 235 -234 218 0
w 235 -234 -218 1
w 236 235 219 1
w 236 235 -219 0
w 236 -235 219 1
w 236 -235 -219 0
w 237 236 220 0
w 237 236 -220 0
w 237 -236 220 1
w 237 -236 -220 0
w 238 237 221 1
w 238 237 -221 0
w 238 -237 221 1
w 238 -237 -221 1
w 239 222 1
w 239 -222 0
w 240 239 223 0
w 240 239 -223 1
w 240 -239 223 1
w 240 -239 -223 1
w 241 240 224 0
w 241 240 -224 1
w 241 -240 224 0
w 241 -240 -224 1
w 242 241 225 0.0299925
w 242 241 -225 0.571911
w 242 -241 225 0.972672
w 242 -241 -225 0.537148
w 243 242 226 1
w 243 242 -226 0
w 243 -242 226 1
w 243 -242 -226 1
w 244 243 227 0
w 244 243 -227 1
w 244 -243 227 1
w 244 -243 -227 1
w 245 244 228 0.846407
w 245 244 -228 0.162462
w 245 -244 228 0.456243
w 245 -244 -228 0.959082
w 246 245 229 0.780702
w 246 245 -229 0.428147
w 246 -245 229 0.812059
w 246 -245 -229 0.436018
w 247 246 230 1
w 247 246 -230 0
w 247 -246 230 1
w 247 -246 -230 1
w 248 247 231 0.557809
w 248 247 -231 0.185688
w 248 -247 231 0.866599
w 248 -247 -231 0.0949579
w 249 248 232 0.163166
w 249 248 -232 0.993275
w 249 -248 232 0.200816
w 249 -248 -232 0.515215
w 250 249 233 0
w 250 249 -233 1
w 250 -249 233 1
w 250 -249 -233 1
w 251 250 234 1
w 251 250 -234 1
w 251 -250 234 0
w 251 -250 -234 0
w 252 251 235 0
w 252 251 -235 0
w 252 -251 235 0
w 252 -251 -235 1
w 253 252 236 0.812256
w 253 252 -236 0.34487
w 253 -252 236 0.859586
w 253 -252 -236 0.340073
w 254 253 237 0.753513
w 254 253 -237 0.897883
w 254 -253 237 0.144334
w 254 -253 -237 0.620112
w 255 254 238 0.0711541
w 255 254 -238 0.783278
w 255 -254 238 0.986116
w 255 -254 -238 0.271971
w 256 239 0
w 256 -239 1
w 257 256 240 0
w 257 256 -240 0
w 257 -256 240 1
w 257 -256 -240 0
w 258 257 241 0.319905
w 258 257 -241 0.490201
w 258 -257 241 0.452821
w 258 -257 -241 0.037694
w 259 258 242 0
w 259 258 -242 0
w 259 -258 242 1
w 259 -258 -242 0
w 260 259 243 0.0183221
w 260 259 -243 0.63756
w 260 -259 243 0.33596
w 260 -259 -243 0.976969
w 261 260 244 0
w 261 260 -244 1
w 261 -260 244 0
w 261 -260 -244 0
w 262 261 245 0.2128
w 262 261 -245 0.464428
w 262 -261 245 0.092956
w 262 -261 -245 0.414828
w 263 262 246 1
w 263 262 -246 1
w 263 -262 246 0
w 263 -262 -246 1
w 264 263 247 0.994428
w 264 263 -247 0.334554
w 264 -263 247 0.237935
w 264 -263 -247 0.0321215
w 265 264 248 1
w 265 264 -248 0
w 265 -264 248 0
w 265 -264 -248 1
w 266 265 249 0
w 266 265 -249 0
w 266 -265 249 1
w 266 -265 -249 1
w 267 266 250 0.781441
w 267 266 -250 0.300397
w 267 -266 250 0.953117
w 267 -266 -250 0.00812431
w 268 267 251 0
w 268 267 -251 0
w 268 -267 251 1
w 268 -267 -251 0
w 269 268 252 0
w 269 268 -252 1
w 269 -268 252 0
w 269 -268 -252 1
w 270 269 253 0.417026
w 270 269 -253 0.739557
w 270 -269 253 0.170749
w 270 -269 -253 0.654961
w 271 270 254 0.6811
w 271 270 -254 0.790285
w 271 -270 254 0.98743
w 271 -270 -254 0.864903
w 272 271 255 0
w 272 271 -255 1
w 272 -271 255 0
w 272 -271 -255 1
w 273 256 0
w 273 -256 1
w 274 273 257 1
w 274 273 -257 1
w 274 -273 257 0
w 274 -273 -257 0
w 275 274 258 0.757155
w 275 274 -258 0.996655
w 275 -274 258 0.737606
w 275 -274 -258 0.392907
w 276 275 259 1
w 276 275 -259 1
w 276 -275 259 1
w 276 -275 -259 0
w 277 276 260 0
w 277 276 -260 1
w 277 -276 260 0
w 277 -276 -260 0
w 278 277 261 1
w 278 277 -261 1
w 278 -277 261 0
w 278 -277 -261 0
w 279 278 262 1
w 279 278 -262 0
w 279 -278 262 0
w 279 -278 -262 0
w 280 279 263 0
w 280 279 -263 1
w 280 -279 263 0
w 280 -279 -263 0
w 281 280 264 1
w 281 280 -264 0
w 281 -280 264 1
w 281 -280 -264 0
w 282 281 265 1
w 282 281 -265 1
w 282 -281 265 0
w 282 -281 -265 0
w 283 282 266 1
w 283 282 -266 1
w 283 -282 266 0
w 283 -282 -266 0
w 284 283 267 0.274638
w 284 283 -267 0.921749
w 284 -283 267 0.24438
w 284 -283 -267 0.557034
w 285 284 268 1
w 285 284 -268 0
w 285 -284 268 0
w 285 -284 -268 1
w 286 285 269 1
w 286 285 -269 0
w 286 -285 269 0
w 286 -285 -269 1
w 287 286 270 0
w 287 286 -270 0
w 287 -286 270 1
w 287 -286 -270 0
w 288 287 271 0
w 288 287 -271 1
w 288 -287 271 0
w 288 -287 -271 1
w 289 288 272 1
w 289 288 -272 0
w 289 -288 272 1
w 289 -288 -272 0